NAME : portcgen-19-25
COMMENT : portcgen N=19, seed=25
TYPE : TSP
DIMENSION : 19
EDGE_WEIGHT_TYPE : EUC_2D
NODE_COORD_SECTION
1 -197799 424309
2 -311218 -365163
3 -27471 -322674
4 -227388 10844
5 78362 -8774
6 -18417 122156
7 -154885 -221585
8 122726 -104917
9 287592 215057
10 65276 -103598
11 734200 42701
12 -388439 -386227
13 89050 120601
14 22391 -124305
15 -245601 -186454
16 137649 249409
17 49823 -269387
18 2713 -137311
19 -86088 -64724
